\ENCODING=ISO-8859-1
\Problem name: IloCplex

Minimize
 obj1: 999999 x1 + 18.6815416922694 x2 + 20.6155281280883 x3
       + 16.1245154965971 x4 + 18.1107702762748 x5 + 15.1327459504216 x6
       + 19 x7 + 16 x8 + 18.1107702762748 x9 + 20.0997512422418 x10
       + 16.7630546142402 x11 + 18.6815416922694 x12 + 999999 x13 + 2 x14
       + 3.60555127546399 x15 + 3 x16 + 4.24264068711928 x17
       + 5.09901951359278 x18 + 5.3851648071345 x19 + 7 x20
       + 7.28010988928052 x21 + 10.1980390271856 x22 + 20.6155281280883 x23
       + 2 x24 + 999999 x25 + 5 x26 + 3.60555127546399 x27
       + 5.8309518948453 x28 + 5.09901951359278 x29 + 6.40312423743285 x30
       + 7.28010988928052 x31 + 7 x32 + 10.770329614269 x33
       + 16.1245154965971 x34 + 3.60555127546399 x35 + 5 x36 + 999999 x37
       + 2 x38 + x39 + 3.60555127546399 x40 + 2 x41 + 4.47213595499958 x42
       + 5.65685424949238 x43 + 7 x44 + 18.1107702762748 x45 + 3 x46
       + 3.60555127546399 x47 + 2 x48 + 999999 x49 + 3 x50
       + 2.23606797749979 x51 + 2.82842712474619 x52 + 4 x53
       + 4.47213595499958 x54 + 7.28010988928052 x55 + 15.1327459504216 x56
       + 4.24264068711928 x57 + 5.8309518948453 x58 + x59 + 3 x60 + 999999 x61
       + 4.47213595499958 x62 + 2.23606797749979 x63 + 5 x64
       + 6.40312423743285 x65 + 7.07106781186548 x66 + 19 x67
       + 5.09901951359278 x68 + 5.09901951359278 x69 + 3.60555127546399 x70
       + 2.23606797749979 x71 + 4.47213595499958 x72 + 999999 x73 + 3 x74
       + 2.23606797749979 x75 + 2.23606797749979 x76 + 5.8309518948453 x77
       + 16 x78 + 5.3851648071345 x79 + 6.40312423743285 x80 + 2 x81
       + 2.82842712474619 x82 + 2.23606797749979 x83 + 3 x84 + 999999 x85
       + 2.82842712474619 x86 + 4.47213595499958 x87 + 5 x88
       + 18.1107702762748 x89 + 7 x90 + 7.28010988928052 x91
       + 4.47213595499958 x92 + 4 x93 + 5 x94 + 2.23606797749979 x95
       + 2.82842712474619 x96 + 999999 x97 + 2 x98 + 3.60555127546399 x99
       + 20.0997512422418 x100 + 7.28010988928052 x101 + 7 x102
       + 5.65685424949238 x103 + 4.47213595499958 x104 + 6.40312423743285 x105
       + 2.23606797749979 x106 + 4.47213595499958 x107 + 2 x108 + 999999 x109
       + 5 x110 + 16.7630546142402 x111 + 10.1980390271856 x112
       + 10.770329614269 x113 + 7 x114 + 7.28010988928052 x115
       + 7.07106781186548 x116 + 5.8309518948453 x117 + 5 x118
       + 3.60555127546399 x119 + 5 x120 + 999999 x121
Subject To
 c1:   <= 200
 c2:   10 x12 + 10 x14 + 10 x15 + 10 x16 + 10 x17 + 10 x18 + 10 x19 + 10 x20
       + 10 x21 + 10 x22 <= 200
 c3:   30 x23 + 30 x24 + 30 x26 + 30 x27 + 30 x28 + 30 x29 + 30 x30 + 30 x31
       + 30 x32 + 30 x33 <= 200
 c4:   10 x34 + 10 x35 + 10 x36 + 10 x38 + 10 x39 + 10 x40 + 10 x41 + 10 x42
       + 10 x43 + 10 x44 <= 200
 c5:   10 x45 + 10 x46 + 10 x47 + 10 x48 + 10 x50 + 10 x51 + 10 x52 + 10 x53
       + 10 x54 + 10 x55 <= 200
 c6:   10 x56 + 10 x57 + 10 x58 + 10 x59 + 10 x60 + 10 x62 + 10 x63 + 10 x64
       + 10 x65 + 10 x66 <= 200
 c7:   20 x67 + 20 x68 + 20 x69 + 20 x70 + 20 x71 + 20 x72 + 20 x74 + 20 x75
       + 20 x76 + 20 x77 <= 200
 c8:   20 x78 + 20 x79 + 20 x80 + 20 x81 + 20 x82 + 20 x83 + 20 x84 + 20 x86
       + 20 x87 + 20 x88 <= 200
 c9:   20 x89 + 20 x90 + 20 x91 + 20 x92 + 20 x93 + 20 x94 + 20 x95 + 20 x96
       + 20 x98 + 20 x99 <= 200
 c10:  10 x100 + 10 x101 + 10 x102 + 10 x103 + 10 x104 + 10 x105 + 10 x106
       + 10 x107 + 10 x108 + 10 x110 <= 200
 c11:  10 x111 + 10 x112 + 10 x113 + 10 x114 + 10 x115 + 10 x116 + 10 x117
       + 10 x118 + 10 x119 + 10 x120 <= 200
 c12:  x2 + x24 + x35 + x46 + x57 + x68 + x79 + x90 + x101 + x112  = 1
 c13:  x3 + x14 + x36 + x47 + x58 + x69 + x80 + x91 + x102 + x113  = 1
 c14:  x4 + x15 + x26 + x48 + x59 + x70 + x81 + x92 + x103 + x114  = 1
 c15:  x5 + x16 + x27 + x38 + x60 + x71 + x82 + x93 + x104 + x115  = 1
 c16:  x6 + x17 + x28 + x39 + x50 + x72 + x83 + x94 + x105 + x116  = 1
 c17:  x7 + x18 + x29 + x40 + x51 + x62 + x84 + x95 + x106 + x117  = 1
 c18:  x8 + x19 + x30 + x41 + x52 + x63 + x74 + x96 + x107 + x118  = 1
 c19:  x9 + x20 + x31 + x42 + x53 + x64 + x75 + x86 + x108 + x119  = 1
 c20:  x10 + x21 + x32 + x43 + x54 + x65 + x76 + x87 + x98 + x120  = 1
 c21:  x11 + x22 + x33 + x44 + x55 + x66 + x77 + x88 + x99 + x110  = 1
 c22:  x12 + x14 + x15 + x16 + x17 + x18 + x19 + x20 + x21 + x22  = 1
 c23:  x23 + x24 + x26 + x27 + x28 + x29 + x30 + x31 + x32 + x33  = 1
 c24:  x34 + x35 + x36 + x38 + x39 + x40 + x41 + x42 + x43 + x44  = 1
 c25:  x45 + x46 + x47 + x48 + x50 + x51 + x52 + x53 + x54 + x55  = 1
 c26:  x56 + x57 + x58 + x59 + x60 + x62 + x63 + x64 + x65 + x66  = 1
 c27:  x67 + x68 + x69 + x70 + x71 + x72 + x74 + x75 + x76 + x77  = 1
 c28:  x78 + x79 + x80 + x81 + x82 + x83 + x84 + x86 + x87 + x88  = 1
 c29:  x89 + x90 + x91 + x92 + x93 + x94 + x95 + x96 + x98 + x99  = 1
 c30:  x100 + x101 + x102 + x103 + x104 + x105 + x106 + x107 + x108 + x110  = 1
 c31:  x111 + x112 + x113 + x114 + x115 + x116 + x117 + x118 + x119 + x120  = 1
 c32:  x2 + x3 + x4 + x5 + x6 + x7 + x8 + x9 + x10 + x11 >= 1
 c33:  x12 + x23 + x34 + x45 + x56 + x67 + x78 + x89 + x100 + x111 >= 1
 c34:  x2 + x3 + x4 + x5 + x6 + x7 + x8 + x9 + x10 + x11 - x12 - x23 - x34
       - x45 - x56 - x67 - x78 - x89 - x100 - x111  = 0
 c35:  - 200 x2 - x122 + x123 >= -190
 c36:  - 200 x3 + x123 - x124 >= -170
 c37:  - 200 x4 + x123 - x125 >= -190
 c38:  - 200 x5 + x123 - x126 >= -190
 c39:  - 200 x6 + x123 - x127 >= -190
 c40:  - 200 x7 + x123 - x128 >= -180
 c41:  - 200 x8 + x123 - x129 >= -180
 c42:  - 200 x9 + x123 - x130 >= -180
 c43:  - 200 x10 + x123 - x131 >= -190
 c44:  - 200 x11 + x123 - x132 >= -190
 c45:  - 200 x12 + x122 - x123 >= -200
 c46:  - 200 x14 + x122 - x124 >= -170
 c47:  - 200 x15 + x122 - x125 >= -190
 c48:  - 200 x16 + x122 - x126 >= -190
 c49:  - 200 x17 + x122 - x127 >= -190
 c50:  - 200 x18 + x122 - x128 >= -180
 c51:  - 200 x19 + x122 - x129 >= -180
 c52:  - 200 x20 + x122 - x130 >= -180
 c53:  - 200 x21 + x122 - x131 >= -190
 c54:  - 200 x22 + x122 - x132 >= -190
 c55:  - 200 x23 - x123 + x124 >= -200
 c56:  - 200 x24 - x122 + x124 >= -190
 c57:  - 200 x26 + x124 - x125 >= -190
 c58:  - 200 x27 + x124 - x126 >= -190
 c59:  - 200 x28 + x124 - x127 >= -190
 c60:  - 200 x29 + x124 - x128 >= -180
 c61:  - 200 x30 + x124 - x129 >= -180
 c62:  - 200 x31 + x124 - x130 >= -180
 c63:  - 200 x32 + x124 - x131 >= -190
 c64:  - 200 x33 + x124 - x132 >= -190
 c65:  - 200 x34 - x123 + x125 >= -200
 c66:  - 200 x35 - x122 + x125 >= -190
 c67:  - 200 x36 - x124 + x125 >= -170
 c68:  - 200 x38 + x125 - x126 >= -190
 c69:  - 200 x39 + x125 - x127 >= -190
 c70:  - 200 x40 + x125 - x128 >= -180
 c71:  - 200 x41 + x125 - x129 >= -180
 c72:  - 200 x42 + x125 - x130 >= -180
 c73:  - 200 x43 + x125 - x131 >= -190
 c74:  - 200 x44 + x125 - x132 >= -190
 c75:  - 200 x45 - x123 + x126 >= -200
 c76:  - 200 x46 - x122 + x126 >= -190
 c77:  - 200 x47 - x124 + x126 >= -170
 c78:  - 200 x48 - x125 + x126 >= -190
 c79:  - 200 x50 + x126 - x127 >= -190
 c80:  - 200 x51 + x126 - x128 >= -180
 c81:  - 200 x52 + x126 - x129 >= -180
 c82:  - 200 x53 + x126 - x130 >= -180
 c83:  - 200 x54 + x126 - x131 >= -190
 c84:  - 200 x55 + x126 - x132 >= -190
 c85:  - 200 x56 - x123 + x127 >= -200
 c86:  - 200 x57 - x122 + x127 >= -190
 c87:  - 200 x58 - x124 + x127 >= -170
 c88:  - 200 x59 - x125 + x127 >= -190
 c89:  - 200 x60 - x126 + x127 >= -190
 c90:  - 200 x62 + x127 - x128 >= -180
 c91:  - 200 x63 + x127 - x129 >= -180
 c92:  - 200 x64 + x127 - x130 >= -180
 c93:  - 200 x65 + x127 - x131 >= -190
 c94:  - 200 x66 + x127 - x132 >= -190
 c95:  - 200 x67 - x123 + x128 >= -200
 c96:  - 200 x68 - x122 + x128 >= -190
 c97:  - 200 x69 - x124 + x128 >= -170
 c98:  - 200 x70 - x125 + x128 >= -190
 c99:  - 200 x71 - x126 + x128 >= -190
 c100: - 200 x72 - x127 + x128 >= -190
 c101: - 200 x74 + x128 - x129 >= -180
 c102: - 200 x75 + x128 - x130 >= -180
 c103: - 200 x76 + x128 - x131 >= -190
 c104: - 200 x77 + x128 - x132 >= -190
 c105: - 200 x78 - x123 + x129 >= -200
 c106: - 200 x79 - x122 + x129 >= -190
 c107: - 200 x80 - x124 + x129 >= -170
 c108: - 200 x81 - x125 + x129 >= -190
 c109: - 200 x82 - x126 + x129 >= -190
 c110: - 200 x83 - x127 + x129 >= -190
 c111: - 200 x84 - x128 + x129 >= -180
 c112: - 200 x86 + x129 - x130 >= -180
 c113: - 200 x87 + x129 - x131 >= -190
 c114: - 200 x88 + x129 - x132 >= -190
 c115: - 200 x89 - x123 + x130 >= -200
 c116: - 200 x90 - x122 + x130 >= -190
 c117: - 200 x91 - x124 + x130 >= -170
 c118: - 200 x92 - x125 + x130 >= -190
 c119: - 200 x93 - x126 + x130 >= -190
 c120: - 200 x94 - x127 + x130 >= -190
 c121: - 200 x95 - x128 + x130 >= -180
 c122: - 200 x96 - x129 + x130 >= -180
 c123: - 200 x98 + x130 - x131 >= -190
 c124: - 200 x99 + x130 - x132 >= -190
 c125: - 200 x100 - x123 + x131 >= -200
 c126: - 200 x101 - x122 + x131 >= -190
 c127: - 200 x102 - x124 + x131 >= -170
 c128: - 200 x103 - x125 + x131 >= -190
 c129: - 200 x104 - x126 + x131 >= -190
 c130: - 200 x105 - x127 + x131 >= -190
 c131: - 200 x106 - x128 + x131 >= -180
 c132: - 200 x107 - x129 + x131 >= -180
 c133: - 200 x108 - x130 + x131 >= -180
 c134: - 200 x110 + x131 - x132 >= -190
 c135: - 200 x111 - x123 + x132 >= -200
 c136: - 200 x112 - x122 + x132 >= -190
 c137: - 200 x113 - x124 + x132 >= -170
 c138: - 200 x114 - x125 + x132 >= -190
 c139: - 200 x115 - x126 + x132 >= -190
 c140: - 200 x116 - x127 + x132 >= -190
 c141: - 200 x117 - x128 + x132 >= -180
 c142: - 200 x118 - x129 + x132 >= -180
 c143: - 200 x119 - x130 + x132 >= -180
 c144: - 200 x120 - x131 + x132 >= -190
 c145: x122 >= 10
 c146: x122 <= 200
 c147: x124 >= 30
 c148: x124 <= 200
 c149: x125 >= 10
 c150: x125 <= 200
 c151: x126 >= 10
 c152: x126 <= 200
 c153: x127 >= 10
 c154: x127 <= 200
 c155: x128 >= 20
 c156: x128 <= 200
 c157: x129 >= 20
 c158: x129 <= 200
 c159: x130 >= 20
 c160: x130 <= 200
 c161: x131 >= 10
 c162: x131 <= 200
 c163: x132 >= 10
 c164: x132 <= 200
Bounds
      x1 = 0
      x2 = 0
      x3 = 0
      x4 = 0
      x5 = 0
      x6 = 0
      x7 = 0
      x8 = 0
      x9 = 0
      x10 = 0
      x11 = 0
 0 <= x12 <= 1
      x13 = 0
 0 <= x14 <= 1
 0 <= x15 <= 1
 0 <= x16 <= 1
      x17 = 0
 0 <= x18 <= 1
 0 <= x19 <= 1
 0 <= x20 <= 1
 0 <= x21 <= 1
 0 <= x22 <= 1
 0 <= x23 <= 1
 0 <= x24 <= 1
      x25 = 0
 0 <= x26 <= 1
 0 <= x27 <= 1
      x28 = 0
 0 <= x29 <= 1
 0 <= x30 <= 1
 0 <= x31 <= 1
 0 <= x32 <= 1
 0 <= x33 <= 1
 0 <= x34 <= 1
 0 <= x35 <= 1
 0 <= x36 <= 1
      x37 = 0
 0 <= x38 <= 1
      x39 = 0
 0 <= x40 <= 1
 0 <= x41 <= 1
 0 <= x42 <= 1
 0 <= x43 <= 1
 0 <= x44 <= 1
 0 <= x45 <= 1
 0 <= x46 <= 1
 0 <= x47 <= 1
 0 <= x48 <= 1
 0 <= x49 <= 1
      x50 = 0
 0 <= x51 <= 1
 0 <= x52 <= 1
 0 <= x53 <= 1
 0 <= x54 <= 1
 0 <= x55 <= 1
 0 <= x56 <= 1
 0 <= x57 <= 1
 0 <= x58 <= 1
 0 <= x59 <= 1
 0 <= x60 <= 1
      x61 = 0
 0 <= x62 <= 1
      x63 = 0
 0 <= x64 <= 1
 0 <= x65 <= 1
 0 <= x66 <= 1
 0 <= x67 <= 1
 0 <= x68 <= 1
 0 <= x69 <= 1
 0 <= x70 <= 1
 0 <= x71 <= 1
      x72 = 0
 0 <= x73 <= 1
 0 <= x74 <= 1
 0 <= x75 <= 1
 0 <= x76 <= 1
 0 <= x77 <= 1
      x78 = 0
      x79 = 0
      x80 = 0
      x81 = 0
      x82 = 0
      x83 = 1
      x84 = 0
      x85 = 0
      x86 = 0
      x87 = 0
      x88 = 0
 0 <= x89 <= 1
 0 <= x90 <= 1
 0 <= x91 <= 1
 0 <= x92 <= 1
 0 <= x93 <= 1
      x94 = 0
 0 <= x95 <= 1
 0 <= x96 <= 1
 0 <= x97 <= 1
 0 <= x98 <= 1
 0 <= x99 <= 1
 0 <= x100 <= 1
 0 <= x101 <= 1
 0 <= x102 <= 1
 0 <= x103 <= 1
 0 <= x104 <= 1
      x105 = 0
 0 <= x106 <= 1
 0 <= x107 <= 1
 0 <= x108 <= 1
 0 <= x109 <= 1
 0 <= x110 <= 1
 0 <= x111 <= 1
 0 <= x112 <= 1
 0 <= x113 <= 1
 0 <= x114 <= 1
 0 <= x115 <= 1
      x116 = 0
 0 <= x117 <= 1
 0 <= x118 <= 1
 0 <= x119 <= 1
 0 <= x120 <= 1
 0 <= x121 <= 1
Binaries
 x1  x2  x3  x4  x5  x6  x7  x8  x9  x10  x11  x45  x46  x47  x48  x49  x50 
 x51  x52  x53  x54  x55  x56  x57  x58  x59  x60  x61  x62  x63  x64  x65 
 x66  x67  x68  x69  x70  x71  x72  x73  x74  x75  x76  x77  x78  x79  x80 
 x81  x82  x83  x84  x85  x86  x87  x88  x89  x90  x91  x92  x93  x94  x95 
 x96  x97  x98  x99  x100  x101  x102  x103  x104  x105  x106  x107  x108 
 x109  x110  x111  x112  x113  x114  x115  x116  x117  x118  x119  x120  x121 
End
